ssat_solver_solve2
#level: 25
Abc_NtkNodeNum(s->pNtk): 290  , BDD limit: 10240
Build BDD success
level 24: 2 element
Exist
level 23: 1 element
Random
level 22: 3 element
Exist
level 21: 1 element
Random
level 20: 3 element
Exist
level 19: 1 element
Random
level 18: 3 element
Exist
level 17: 1 element
Random
level 16: 3 element
Exist
level 15: 1 element
Random
level 14: 3 element
Exist
level 13: 1 element
Random
level 12: 3 element
Exist
level 11: 1 element
Random
level 10: 3 element
Exist
level 9: 1 element
Random
level 8: 3 element
Exist
level 7: 1 element
Random
level 6: 3 element
Exist
level 5: 1 element
Random
level 4: 3 element
Exist
level 3: 1 element
Random
level 2: 3 element
Exist
level 1: 1 element
Random
level 0: 3 element
Exist
c ssat solving in ABC
#var: 50
s SATISFIABLE
  > Upper bound = 1.000000e+00
  > Lower bound = 1.000000e+00
FINISHED CPU 0.01 MEM 45584 MAXMEM 45584 STALE 0 MAXMEM_RSS 4108
<time name="ALL">90</time>
real 0.38
user 0.18
sys 0.17
